
Log started (V12.10.0.0) Mon Apr  5 17:36:10 2021


Problem 'asset.lp' read.
Read time = 0.01 sec. (0.52 ticks)
New value for default parallel thread count: 1
New value for time limit in seconds: 150
Version identifier: 12.10.0.0 | 2019-11-26 | 843d4de
CPXPARAM_Threads                                 1
CPXPARAM_TimeLimit                               150
Found incumbent of value 0.000000 after 0.00 sec. (0.14 ticks)
Tried aggregator 3 times.
MIP Presolve eliminated 881 rows and 236 columns.
MIP Presolve modified 3890 coefficients.
Aggregator did 1702 substitutions.
Reduced MIP has 1997 rows, 2571 columns, and 11379 nonzeros.
Reduced MIP has 2218 binaries, 290 generals, 0 SOSs, and 0 indicators.
Presolve time = 0.02 sec. (21.69 ticks)
Probing fixed 18 vars, tightened 6 bounds.
Probing time = 0.02 sec. (13.37 ticks)
Cover probing fixed 0 vars, tightened 6 bounds.
Tried aggregator 1 time.
Detecting symmetries...
MIP Presolve eliminated 34 rows and 34 columns.
MIP Presolve modified 204 coefficients.
Reduced MIP has 1963 rows, 2537 columns, and 11079 nonzeros.
Reduced MIP has 2190 binaries, 284 generals, 0 SOSs, and 0 indicators.
Presolve time = 0.01 sec. (10.21 ticks)
Probing time = 0.00 sec. (2.99 ticks)
Clique table members: 7271.
MIP emphasis: balance optimality and feasibility.
MIP search method: dynamic search.
Parallel mode: none, using 1 thread.
Root relaxation solution time = 0.04 sec. (56.34 ticks)

        Nodes                                         Cuts/
   Node  Left     Objective  IInf  Best Integer    Best Bound    ItCnt     Gap

*     0+    0                            0.0000      310.0000              --- 
      0     0      310.0000   380        0.0000      310.0000      986     --- 
      0     0      309.8370   380        0.0000     Cuts: 337     2212     --- 
      0     0      308.0000   380        0.0000     Cuts: 590     3066     --- 
      0     0      308.0000   380        0.0000     Cuts: 590     4400     --- 
*     0+    0                           48.0000      308.0000           541.67%
      0     0        cutoff             48.0000      308.0000     4400  541.67%
      0     0      308.0000   380       48.0000     Cuts: 167     5284  541.67%
      0     0      308.0000   380       48.0000     Cuts: 590     6519  541.67%
      0     2      308.0000   359       48.0000      308.0000     6519  541.67%
Elapsed time = 1.79 sec. (2562.07 ticks, tree = 0.01 MB, solutions = 1)
      2     4      308.0000   399       48.0000      308.0000     8600  541.67%
      9    11      308.0000   376       48.0000      308.0000    10064  541.67%
     16    18      307.0000   394       48.0000      308.0000    12918  541.67%
     22    24      304.0000   363       48.0000      308.0000    15672  541.67%
     36    38      290.4170   313       48.0000      308.0000    18891  541.67%
     44    46      288.7454   311       48.0000      308.0000    21927  541.67%
     50    52      295.7421   322       48.0000      308.0000    24243  541.67%
     66    64      294.3237   294       48.0000      308.0000    26540  541.67%
     79    77      285.5850   234       48.0000      308.0000    29595  541.67%
    157   137      307.9642   421       48.0000      308.0000    36446  541.67%
Elapsed time = 4.19 sec. (6206.45 ticks, tree = 1.23 MB, solutions = 1)
    185   165      305.7590   391       48.0000      308.0000    40890  541.67%
    209   189      306.0000   387       48.0000      308.0000    48520  541.67%
    227   207      305.8344   325       48.0000      308.0000    55895  541.67%
    260   240      297.4747   349       48.0000      308.0000    65493  541.67%
    342   314      266.7591   213       48.0000      308.0000    72825  541.67%
*   459+  407                          104.0000      308.0000           196.15%
*   460+  408                          114.0000      308.0000           170.18%
    460   410      307.9175   435      114.0000      308.0000    80058  170.18%
*   461+  409                          126.0000      308.0000           144.44%
*   461+  409                          142.0000      308.0000           116.90%
    480   430      308.0000   341      142.0000      308.0000    84971  116.90%
    554   502      305.3067   328      142.0000      308.0000    91134  116.90%

Performing restart 1

Repeating presolve.
Tried aggregator 1 time.
MIP Presolve modified 2659 coefficients.
Reduced MIP has 1963 rows, 2537 columns, and 9268 nonzeros.
Reduced MIP has 2190 binaries, 284 generals, 0 SOSs, and 0 indicators.
Presolve time = 0.01 sec. (8.00 ticks)
Tried aggregator 1 time.
Reduced MIP has 1963 rows, 2537 columns, and 9268 nonzeros.
Reduced MIP has 2190 binaries, 284 generals, 0 SOSs, and 0 indicators.
Presolve time = 0.01 sec. (6.70 ticks)
Represolve time = 0.06 sec. (41.59 ticks)
    571     0      306.4242   566      142.0000     Cuts: 312   101291  115.79%
    571     0      303.7492   566      142.0000     Cuts: 494   103844  113.91%
    571     0      301.8505   566      142.0000     Cuts: 444   105538  112.57%
    571     0      299.7230   566      142.0000     Cuts: 379   107530  111.07%
    571     0      298.0384   566      142.0000     Cuts: 312   108977  109.89%
    571     0      296.9958   566      142.0000     Cuts: 266   110100  109.15%
    571     0      296.4131   566      142.0000     Cuts: 240   111183  108.74%
    571     0      295.9594   566      142.0000     Cuts: 210   112423  108.42%
    571     0      295.6113   566      142.0000     Cuts: 224   113312  108.18%
    571     0      295.0912   566      142.0000     Cuts: 167   114541  107.81%
    571     0      294.8961   566      142.0000     Cuts: 183   115376  107.67%
    571     0      294.6621   566      142.0000     Cuts: 176   116000  107.51%
    571     0      294.3248   566      142.0000     Cuts: 132   116708  107.27%
    571     0      294.2358   566      142.0000     Cuts: 147   117172  107.21%
    571     0      294.1091   566      142.0000     Cuts: 136   117580  107.12%
    571     0      294.0484   566      142.0000     Cuts: 125   117998  107.08%
    571     0      293.9132   566      142.0000     Cuts: 122   118585  106.98%
    571     0      293.7970   566      142.0000     Cuts: 122   119053  106.90%
    571     0      293.7073   566      142.0000     Cuts: 125   119485  106.84%
    571     0      293.6451   566      142.0000     Cuts: 123   119855  106.79%
    571     0      293.5344   566      142.0000     Cuts: 114   120404  106.71%
    571     0      293.5091   566      142.0000      Cuts: 85   120685  106.70%
    571     0      293.4071   566      142.0000      Cuts: 66   121114  106.62%
    571     0      293.3416   566      142.0000     Cuts: 112   121533  106.58%
    571     0      293.3106   566      142.0000     Cuts: 155   121778  106.56%
    571     0      293.2152   566      142.0000     Cuts: 105   122260  106.49%
    571     0      293.1908   566      142.0000     Cuts: 138   122583  106.47%
    571     0      293.1308   566      142.0000      Cuts: 93   123017  106.43%
    571     0      293.0878   566      142.0000      Cuts: 97   123330  106.40%
    571     2      293.0878   551      142.0000      293.0875   123330  106.40%
    573     4      289.7381   541      142.0000      293.0065   124979  106.34%
Elapsed time = 37.37 sec. (49923.34 ticks, tree = 0.01 MB, solutions = 5)
    575     6      292.1819   501      142.0000      292.9518   126730  106.30%
    577     8      291.5894   523      142.0000      292.9518   130666  106.30%
    580    11      288.5045   469      142.0000      292.9518   134958  106.30%
    581    12      290.2917   494      142.0000      292.9518   135564  106.30%
    583    14      288.0262   459      142.0000      292.9518   139592  106.30%
    587    18      286.1335   435      142.0000      292.9518   143412  106.30%
    591    22      285.6610   432      142.0000      292.9518   146543  106.30%
    595    26      282.1070   462      142.0000      292.9518   152168  106.30%
    597    28      276.8904   426      142.0000      292.9518   159874  106.30%
    601    32      279.3041   388      142.0000      292.9518   166417  106.30%
Elapsed time = 47.82 sec. (65933.37 ticks, tree = 0.08 MB, solutions = 5)
    604    35      280.8075   445      142.0000      292.9518   170416  106.30%
    608    39      279.7395   429      142.0000      292.9518   175405  106.30%
    611    42      275.8723   423      142.0000      292.9518   180449  106.30%
    616    47      275.3578   415      142.0000      292.9518   184475  106.30%
    621    52      272.8329   396      142.0000      292.9518   187385  106.30%
    627    58      269.4080   361      142.0000      292.9518   190852  106.30%
    634    65      272.6129   379      142.0000      292.9518   193597  106.30%
    641    72      272.2749   352      142.0000      292.9518   195233  106.30%
    651    82      271.5330   348      142.0000      292.9518   198174  106.30%
    670   101      269.3954   348      142.0000      292.9518   201639  106.30%
Elapsed time = 55.16 sec. (77304.12 ticks, tree = 1.20 MB, solutions = 5)
    683   112      263.3985   306      142.0000      292.9518   204771  106.30%
    695   124      264.9909   347      142.0000      292.9518   207734  106.30%
    713   142      255.6308   315      142.0000      292.9518   212397  106.30%
    721   144      287.8823   503      142.0000      292.5801   215009  106.04%
    725   148      286.8689   493      142.0000      292.5801   218239  106.04%
    729   152      284.6655   464      142.0000      292.5801   221654  106.04%
    731   154      284.5246   436      142.0000      292.5801   222237  106.04%
    735   158      282.1574   452      142.0000      292.5801   226028  106.04%
    742   165      276.5528   410      142.0000      292.5801   230043  106.04%
    750   173      276.5450   404      142.0000      292.5801   234295  106.04%
Elapsed time = 63.19 sec. (89252.00 ticks, tree = 2.63 MB, solutions = 5)
    760   183      272.0092   391      142.0000      292.5801   239338  106.04%
    774   197      266.0903   373      142.0000      292.5801   244207  106.04%
    788   211      260.8170   349      142.0000      292.5801   249179  106.04%
    795   218      260.7202   350      142.0000      292.5801   250791  106.04%
    820   241      257.8344   320      142.0000      292.5801   255360  106.04%
    857   274      244.4606   266      142.0000      292.5801   259762  106.04%
    890   306      237.1549   234      142.0000      292.5801   265041  106.04%
    900   312      285.8187   523      142.0000      291.5892   268377  105.34%
    909   321      283.6959   477      142.0000      291.5892   272379  105.34%
    921   333      278.4529   438      142.0000      291.5892   276758  105.34%
Elapsed time = 69.92 sec. (99195.15 ticks, tree = 5.57 MB, solutions = 5)
    931   343      273.0021   409      142.0000      291.5892   280861  105.34%
    952   362      270.0098   389      142.0000      291.5892   285546  105.34%
    965   373      257.2120   333      142.0000      291.5892   291480  105.34%
    973   381      285.4920   448      142.0000      290.0309   295080  104.25%
    979   387      282.3359   443      142.0000      290.0309   298098  104.25%
    987   395      279.7037   444      142.0000      290.0309   301312  104.25%
   1001   409      277.5911   437      142.0000      290.0309   304609  104.25%
   1009   417      268.2995   400      142.0000      290.0309   308804  104.25%
   1011   419      268.2880   399      142.0000      290.0309   308905  104.25%
   1023   431      259.9945   360      142.0000      290.0309   313105  104.25%
Elapsed time = 77.22 sec. (109793.22 ticks, tree = 6.66 MB, solutions = 5)
   1031   437    infeasible            142.0000      290.0309   317631  104.25%
   1040   444      242.6644   312      142.0000      290.0309   322509  104.25%
   1046   446      287.5425   456      142.0000      289.8414   324894  104.11%
   1051   451      286.2756   480      142.0000      289.8414   326639  104.11%
   1058   458      284.4723   457      142.0000      289.8414   329927  104.11%
   1066   466      281.8963   440      142.0000      289.8414   334268  104.11%
   1078   478      265.3444   421      142.0000      289.8414   339531  104.11%
   1091   491      260.8994   384      142.0000      289.8414   344003  104.11%
   1104   502      255.3357   374      142.0000      289.8414   349775  104.11%
   1125   519    infeasible            142.0000      289.8414   355156  104.11%
Elapsed time = 84.71 sec. (120585.73 ticks, tree = 8.56 MB, solutions = 5)
   1127   519      289.6117   533      142.0000      289.8410   360388  104.11%
   1134   526      285.7089   477      142.0000      289.8410   364682  104.11%
   1138   530      284.0014   490      142.0000      289.8410   368764  104.11%
   1143   535      287.1510   493      142.0000      289.8410   372203  104.11%
   1147   539      286.4023   486      142.0000      289.8410   375865  104.11%
   1151   543      283.4156   434      142.0000      289.8410   379435  104.11%
   1156   548      281.6579   455      142.0000      289.8410   383966  104.11%
   1164   555      276.7717   406      142.0000      289.8410   387995  104.11%
   1176   567      275.3108   389      142.0000      289.8410   391983  104.11%
   1180   571      268.3060   382      142.0000      289.8410   396402  104.11%
Elapsed time = 92.59 sec. (131874.05 ticks, tree = 9.64 MB, solutions = 5)
   1186   577      268.9434   355      142.0000      289.8410   400424  104.11%
   1198   589      266.1524   336      142.0000      289.8410   405072  104.11%
   1209   600      263.5329   321      142.0000      289.8410   410119  104.11%
   1226   617      257.5783   319      142.0000      289.8410   415232  104.11%
   1239   630      236.9704   269      142.0000      289.8410   420579  104.11%
   1246   637      249.5255   337      142.0000      289.8410   425510  104.11%
   1251   636      286.2383   513      142.0000      289.7347   428815  104.04%
   1255   640      285.2533   491      142.0000      289.7347   431546  104.04%
   1261   646      283.3871   488      142.0000      289.7347   435410  104.04%
*  1271+  654                          154.0000      289.7347            88.14%
   1287   672      277.8644   420      154.0000      289.7347   446504   88.14%
Elapsed time = 104.43 sec. (148817.35 ticks, tree = 11.08 MB, solutions = 6)
   1321   700      289.5739   544      154.0000      289.6469   464916   88.08%
   1363   742      274.8622   447      154.0000      289.6469   479236   88.08%
   1372   751      267.0546   416      154.0000      289.6469   481789   88.08%
   1426   799      287.5577   492      154.0000      289.6104   497023   88.06%
*  1471+  842                          168.0000      289.6104            72.39%
*  1471+  842                          174.0000      289.6104            66.44%
*  1471+  842                          178.0000      289.6104            62.70%
*  1471+  842                          180.0000      289.6104            60.89%
*  1471+  842                          182.0000      289.6104            59.13%
   1471   844      274.5308   384      182.0000      289.6104   510377   59.13%
   1544   913      277.9269   427      182.0000      289.5733   529295   59.11%
   1571   938      263.6627   388      182.0000      289.5733   544124   59.11%
   1592   955      272.9755   455      182.0000      289.5712   560342   59.11%
   1630   993      255.9460   348      182.0000      289.5712   576408   59.11%
   1650  1002    infeasible            182.0000      289.5712   598576   59.11%
Elapsed time = 132.55 sec. (188339.65 ticks, tree = 15.85 MB, solutions = 11)
   1666  1018      268.6963   429      182.0000      289.5460   610460   59.09%
Starting limited solution polishing.
   1693  1045      261.5955   405      182.0000      289.5460   616115   59.09%
   1740  1088      286.0694   522      182.0000      289.3929   630301   59.01%
   1771  1119      261.4454   400      182.0000      289.3929   642251   59.01%
   1812  1154      282.9706   484      182.0000      289.0451   656276   58.82%

GUB cover cuts applied:  96
Clique cuts applied:  144
Cover cuts applied:  10
Implied bound cuts applied:  108
Flow cuts applied:  21
Mixed integer rounding cuts applied:  153
Zero-half cuts applied:  106
Lift and project cuts applied:  29
Gomory fractional cuts applied:  5

Root node processing (before b&c):
  Real time             =    1.78 sec. (2552.56 ticks)
Sequential b&c:
  Real time             =  148.23 sec. (209947.12 ticks)
                          ------------
Total (root+branch&cut) =  150.00 sec. (212499.68 ticks)

Solution pool: 12 solutions saved.

MIP - Time limit exceeded, integer feasible:  Objective =  1.8200000000e+02
Current MIP best bound =  2.8904514863e+02 (gap = 107.045, 58.82%)
Solution time =  150.00 sec.  Iterations = 665976  Nodes = 1829 (1170)
Deterministic time = 212499.69 ticks  (1416.65 ticks/sec)


Incumbent solution
Variable Name           Solution Value
F                           182.000000
y3                            1.000000
y31                           1.000000
y38                           1.000000
y45                           1.000000
y60                           1.000000
y77                           1.000000
y80                           1.000000
y81                           1.000000
y83                           1.000000
y89                           1.000000
y97                           1.000000
y98                           1.000000
y115                          1.000000
y130                          1.000000
y138                          1.000000
y142                          1.000000
y155                          1.000000
y193                          1.000000
y204                          1.000000
y205                          1.000000
y216                          1.000000
y222                          1.000000
y224                          1.000000
y228                          1.000000
y234                          1.000000
y235                          1.000000
y238                          1.000000
y239                          1.000000
y240                          1.000000
y250                          1.000000
x17x239x1                     1.000000
x27x3x1                       1.000000
x50x3x1                       1.000000
x74x31x1                      1.000000
x118x60x1                     1.000000
x139x98x1                     1.000000
x164x228x1                    2.000000
x217x142x1                    1.000000
x13x81x2                      1.000000
x17x89x2                      1.000000
x43x77x2                      1.000000
x43x235x2                     1.000000
x74x60x2                      1.000000
x124x239x2                    1.000000
x139x77x2                     1.000000
x218x204x2                    2.000000
x23x89x3                      1.000000
x23x98x3                      1.000000
x27x193x3                     1.000000
x102x193x3                    1.000000
x118x81x3                     1.000000
x124x31x3                     1.000000
x160x250x3                    2.000000
x217x80x3                     1.000000
x3x97x1                       1.000000
x3x142x1                      1.000000
x31x83x1                      1.000000
x31x238x3                     1.000000
x77x38x2                      1.000000
x38x0x2                       1.000000
x250x38x3                     1.000000
x38x0x3                       1.000000
x235x45x2                     1.000000
x45x0x2                       1.000000
x235x45x3                     1.000000
x45x0x3                       1.000000
x60x80x1                      1.000000
x60x115x2                     1.000000
x77x222x2                     1.000000
x80x0x1                       1.000000
x80x0x3                       1.000000
x81x224x2                     1.000000
x81x235x3                     1.000000
x98x83x1                      1.000000
x83x0x1                       2.000000
x89x155x2                     1.000000
x89x155x3                     1.000000
x97x0x1                       1.000000
x204x97x2                     1.000000
x97x216x2                     1.000000
x98x240x3                     1.000000
x239x115x2                    1.000000
x115x0x2                      2.000000
x142x130x1                    2.000000
x130x0x1                      2.000000
x193x138x3                    2.000000
x138x234x3                    2.000000
x155x0x2                      1.000000
x155x0x3                      1.000000
x204x224x2                    1.000000
x224x205x2                    2.000000
x205x0x2                      2.000000
x216x0x2                      1.000000
x250x216x3                    1.000000
x216x0x3                      1.000000
x228x222x1                    1.000000
x222x0x1                      1.000000
x222x0x2                      1.000000
x228x238x1                    1.000000
x234x0x3                      2.000000
x238x0x1                      1.000000
x238x0x3                      1.000000
x239x240x1                    1.000000
x240x0x1                      1.000000
x240x0x3                      1.000000
s13                           4.137321
s14                           6.936470
z13z14z2                      1.000000
s26                           8.960000
s38                           9.400000
s45                           9.200000
s52                           8.050000
s60                           6.798518
s77                           7.363522
z13z77z2                      1.000000
s81                           6.621861
z13z81z2                      1.000000
s89                           7.210000
s94                           8.000000
s97                           8.250893
s115                          8.460000
z13z115z2                     1.000000
s152                          9.270000
z13z152z2                     1.000000
s155                          8.231082
s170                          6.280000
z13z170z2                     1.000000
s182                          6.840000
s201                          7.880000
s204                          6.596194
z13z204z2                     1.000000
s205                          9.270000
z13z205z2                     1.000000
s213                          8.360000
z13z213z2                     1.000000
s216                          9.350000
s219                          8.140000
s222                          9.030000
s223                          9.290000
z13z223z2                     1.000000
s224                          7.927148
z13z224z2                     1.000000
s226                          7.153937
z13z226z2                     1.000000
s235                          7.782139
s239                          7.042999
s244                          6.710000
s253                          8.850000
s263                          6.290000
s268                          7.960000
s17                           5.723421
s3                            6.310000
s22                           7.615353
z17z22z1                      1.000000
s31                           7.080000
s64                           7.880000
z17z64z1                      1.000000
s68                           9.270000
z17z68z1                      1.000000
s75                           9.110000
z17z77z2                      1.000000
s80                           7.977403
s83                           9.130000
z17z83z1                      1.000000
z17z89z2                      1.000000
s98                           7.810000
s101                          7.180000
z17z115z2                     1.000000
s119                          8.130000
s130                          9.040000
z17z130z1                     1.000000
s133                          9.090000
z17z133z1                     1.000000
s142                          7.920000
z17z142z1                     1.000000
s145                          8.740000
z17z145z1                     1.000000
z17z152z2                     1.000000
s159                          7.980000
s171                          7.060000
s186                          6.430000
s192                          8.340000
z17z192z1                     1.000000
s199                          9.110000
z17z205z2                     1.000000
z17z223z2                     1.000000
s228                          7.133564
s238                          8.738617
z17z239z1                     1.000000
s240                          8.980000
s257                          9.350000
s269                          9.160000
z17z269z1                     1.000000
s271                          9.030000
z17z271z1                     1.000000
s23                           5.821508
s29                           7.300000
z23z29z3                      1.000000
z23z89z3                      1.000000
s91                           7.050000
z23z98z3                      1.000000
s105                          8.110000
s127                          7.870000
s138                          7.790000
z23z138z3                     1.000000
s193                          6.320000
s230                          8.960000
z23z230z3                     1.000000
s234                          9.420000
z23z234z3                     1.000000
s249                          7.770000
z23z249z3                     1.000000
s250                          8.269446
z23z250z3                     1.000000
s27                           4.410000
z27z3z1                       1.000000
z27z22z1                      1.000000
z27z29z3                      1.000000
z27z64z1                      1.000000
z27z68z1                      1.000000
z27z83z1                      1.000000
z27z91z3                      1.000000
z27z105z3                     1.000000
z27z119z1                     1.000000
z27z127z3                     1.000000
z27z130z1                     1.000000
z27z133z1                     1.000000
z27z138z3                     1.000000
z27z142z1                     1.000000
z27z145z1                     1.000000
z27z171z1                     1.000000
z27z186z1                     1.000000
z27z192z1                     1.000000
z27z193z3                     1.000000
z27z228z1                     1.000000
z27z230z3                     1.000000
z27z234z3                     1.000000
z27z249z3                     1.000000
z27z250z3                     1.000000
z27z269z1                     1.000000
z27z271z1                     1.000000
s43                           5.737578
z43z77z2                      1.000000
z43z115z2                     1.000000
z43z152z2                     1.000000
z43z205z2                     1.000000
z43z223z2                     1.000000
z43z235z2                     1.000000
s50                           4.470000
z50z3z1                       1.000000
z50z22z1                      1.000000
z50z64z1                      1.000000
z50z68z1                      1.000000
z50z83z1                      1.000000
z50z119z1                     1.000000
z50z130z1                     1.000000
z50z133z1                     1.000000
z50z142z1                     1.000000
z50z145z1                     1.000000
z50z171z1                     1.000000
z50z186z1                     1.000000
z50z192z1                     1.000000
z50z228z1                     1.000000
z50z269z1                     1.000000
z50z271z1                     1.000000
s74                           5.364136
z74z22z1                      1.000000
z74z31z1                      1.000000
z74z60z2                      1.000000
z74z64z1                      1.000000
z74z68z1                      1.000000
z74z77z2                      1.000000
z74z83z1                      1.000000
z74z115z2                     1.000000
z74z119z1                     1.000000
z74z130z1                     1.000000
z74z133z1                     1.000000
z74z142z1                     1.000000
z74z145z1                     1.000000
z74z152z2                     1.000000
z74z171z1                     1.000000
z74z192z1                     1.000000
z74z205z2                     1.000000
z74z213z2                     1.000000
z74z223z2                     1.000000
z74z224z2                     1.000000
z74z269z1                     1.000000
z74z271z1                     1.000000
s102                          3.852039
z102z29z3                     1.000000
z102z91z3                     1.000000
z102z105z3                    1.000000
z102z127z3                    1.000000
z102z138z3                    1.000000
z102z193z3                    1.000000
z102z230z3                    1.000000
z102z234z3                    1.000000
z102z249z3                    1.000000
z102z250z3                    1.000000
s118                          4.988633
z118z22z1                     1.000000
z118z29z3                     1.000000
z118z60z1                     1.000000
z118z64z1                     1.000000
z118z68z1                     1.000000
z118z81z3                     1.000000
z118z83z1                     1.000000
z118z91z3                     1.000000
z118z105z3                    1.000000
z118z119z1                    1.000000
z118z130z1                    1.000000
z118z133z1                    1.000000
z118z142z1                    1.000000
z118z145z1                    1.000000
z118z171z1                    1.000000
z118z192z1                    1.000000
z118z230z3                    1.000000
z118z234z3                    1.000000
z118z249z3                    1.000000
z118z250z3                    1.000000
z118z269z1                    1.000000
z118z271z1                    1.000000
s124                          5.485723
z124z29z3                     1.000000
z124z31z3                     1.000000
z124z77z2                     1.000000
z124z91z3                     1.000000
z124z105z3                    1.000000
z124z115z2                    1.000000
z124z152z2                    1.000000
z124z205z2                    1.000000
z124z213z2                    1.000000
z124z223z2                    1.000000
z124z230z3                    1.000000
z124z234z3                    1.000000
z124z239z2                    1.000000
z124z249z3                    1.000000
z124z250z3                    1.000000
s139                          5.748306
z139z22z1                     1.000000
z139z64z1                     1.000000
z139z68z1                     1.000000
z139z77z2                     1.000000
z139z83z1                     1.000000
z139z98z1                     1.000000
z139z115z2                    1.000000
z139z130z1                    1.000000
z139z133z1                    1.000000
z139z142z1                    1.000000
z139z145z1                    1.000000
z139z152z2                    1.000000
z139z205z2                    1.000000
z139z223z2                    1.000000
z139z269z1                    1.000000
z139z271z1                    1.000000
s160                          5.646320
z160z29z3                     1.000000
z160z138z3                    1.000000
z160z230z3                    1.000000
z160z234z3                    1.000000
z160z249z3                    1.000000
z160z250z3                    1.000000
s164                          5.838833
z164z22z1                     1.000000
z164z64z1                     1.000000
z164z68z1                     1.000000
z164z83z1                     1.000000
z164z130z1                    1.000000
z164z133z1                    1.000000
z164z142z1                    1.000000
z164z145z1                    1.000000
z164z192z1                    1.000000
z164z228z1                    1.000000
z164z269z1                    1.000000
z164z271z1                    1.000000
s217                          5.518134
z217z22z1                     1.000000
z217z29z3                     1.000000
z217z64z1                     1.000000
z217z68z1                     1.000000
z217z80z3                     1.000000
z217z83z1                     1.000000
z217z105z3                    1.000000
z217z130z1                    1.000000
z217z133z1                    1.000000
z217z142z1                    1.000000
z217z145z1                    1.000000
z217z192z1                    1.000000
z217z230z3                    1.000000
z217z234z3                    1.000000
z217z249z3                    1.000000
z217z250z3                    1.000000
z217z269z1                    1.000000
z217z271z1                    1.000000
s218                          5.278758
z218z14z2                     1.000000
z218z77z2                     1.000000
z218z115z2                    1.000000
z218z152z2                    1.000000
z218z204z2                    1.000000
z218z205z2                    1.000000
z218z213z2                    1.000000
z218z223z2                    1.000000
z218z224z2                    1.000000
z3z97z1                       1.000000
z3z142z1                      1.000000
z14z205z2                     1.000000
z14z213z2                     1.000000
z31z83z1                      1.000000
z31z234z3                     1.000000
z31z238z3                     1.000000
z60z80z1                      1.000000
z60z115z2                     1.000000
z60z205z2                     1.000000
z77z38z2                      1.000000
z77z115z2                     1.000000
z77z205z2                     1.000000
z77z222z2                     1.000000
z81z205z2                     1.000000
z81z224z2                     1.000000
z81z234z3                     1.000000
z81z235z3                     1.000000
z89z155z2                     1.000000
z89z155z3                     1.000000
z91z234z3                     1.000000
z97z216z2                     1.000000
z98z83z1                      1.000000
z98z240z3                     1.000000
z127z234z3                    1.000000
z138z234z3                    1.000000
z142z130z1                    1.000000
z142z269z1                    1.000000
z170z205z2                    1.000000
z182z205z2                    1.000000
z182z234z3                    1.000000
z186z22z1                     1.000000
z193z138z3                    1.000000
z193z234z3                    1.000000
z201z205z2                    1.000000
z201z234z3                    1.000000
z204z97z2                     1.000000
z204z205z2                    1.000000
z204z224z2                    1.000000
z224z205z2                    1.000000
z226z205z2                    1.000000
z228z222z1                    1.000000
z228z238z1                    1.000000
z235z45z2                     1.000000
z235z45z3                     1.000000
z239z115z2                    1.000000
z239z205z2                    1.000000
z239z240z1                    1.000000
z244z205z2                    1.000000
z250z38z3                     1.000000
z250z216z3                    1.000000
z263z205z2                    1.000000
z268z205z2                    1.000000
All other variables in the range 1-4511 are 0.
